src/swarm_exploration/utils/lkh_mtsp_solver/resource/amtsp2_1.atsp
NAME : amtsp
TYPE : ATSP
DIMENSION : 4
EDGE_WEIGHT_TYPE : EXPLICIT
EDGE_WEIGHT_FORMAT : FULL_MATRIX
EDGE_WEIGHT_SECTION
100000 -100000 100000 100000 
100000 100000 475 -196 
0 0 100000 333 
0 0 333 100000 
