src/swarm_exploration/utils/lkh_mtsp_solver/resource/amtsp2_1.tour
NAME : amtsp.-99917.tour
COMMENT : Length = -99917
COMMENT : Found by LKH [Keld Helsgaun] Mon Aug  4 19:49:51 2025
TYPE : TOUR
DIMENSION : 3
TOUR_SECTION
1
2
3
-1
EOF
